
(set-option :produce-models true)
(set-option :inline-size-limit 10000)

(declare-const var0 String)

(push 1)
(assert (str.in.re var0 (re.* (re.range "\x01" "\xff"))))
(assert (str.in.re var0 (re.++ (re.*? re.allchar) (re.++ (re.++ ((_ re.capture 1) (re.++ (str.to.re "S") (re.++ (str.to.re "E") (re.++ (str.to.re "L") (re.++ (str.to.re "E") (re.++ (str.to.re "C") (re.++ (str.to.re "T") (re.++ (re.union (str.to.re " ") (re.union (str.to.re "\u{0b}") (re.union (str.to.re "\u{0a}") (re.union (str.to.re "\u{0d}") (re.union (str.to.re "\u{09}") (str.to.re "\u{0c}")))))) (re.++ (re.union (re.++ (str.to.re "") (re.++ (str.to.re "D") (re.++ (str.to.re "I") (re.++ (str.to.re "S") (re.++ (str.to.re "T") (re.++ (str.to.re "I") (re.++ (str.to.re "N") (re.++ (str.to.re "C") (str.to.re "T"))))))))) (str.to.re "")) (re.+? (re.union (re.range "A" "Z") (re.union (re.range "a" "z") (re.union (re.range "0" "9") (re.union (str.to.re "_") (re.union (str.to.re "*") (re.union (str.to.re ")") (re.union (str.to.re "(") (re.union (str.to.re ",") (re.union (re.union (str.to.re "\u{20}") (re.union (str.to.re "\u{0b}") (re.union (str.to.re "\u{0a}") (re.union (str.to.re "\u{0d}") (re.union (str.to.re "\u{09}") (str.to.re "\u{0c}")))))) (re.union (str.to.re ".") (re.union (str.to.re "&") (re.union (str.to.re "#") (re.union (str.to.re "3") (re.union (str.to.re "9") (re.union (str.to.re ";") (re.union (str.to.re "+") (re.union (str.to.re "|") (re.union (str.to.re ":") (str.to.re "="))))))))))))))))))))))))))))) (re.++ (re.union (str.to.re " ") (re.union (str.to.re "\u{0b}") (re.union (str.to.re "\u{0a}") (re.union (str.to.re "\u{0d}") (re.union (str.to.re "\u{09}") (str.to.re "\u{0c}")))))) (re.++ (str.to.re "F") (re.++ (str.to.re "R") (re.++ (str.to.re "O") (re.++ (str.to.re "M") (re.++ (re.union (str.to.re " ") (re.union (str.to.re "\u{0b}") (re.union (str.to.re "\u{0a}") (re.union (str.to.re "\u{0d}") (re.union (str.to.re "\u{09}") (str.to.re "\u{0c}")))))) (re.+ (re.union (re.union (re.range "a" "z") (re.union (re.range "A" "Z") (re.union (re.range "0" "9") (str.to.re "_")))) (str.to.re ".")))))))))) re.all))))	; match!==null
(assert (not (str.in.re ((_ str.extract 1) var0 (re.++ (re.*? re.allchar) (re.++ (re.++ ((_ re.capture 1) (re.++ (str.to.re "S") (re.++ (str.to.re "E") (re.++ (str.to.re "L") (re.++ (str.to.re "E") (re.++ (str.to.re "C") (re.++ (str.to.re "T") (re.++ (re.union (str.to.re " ") (re.union (str.to.re "\u{0b}") (re.union (str.to.re "\u{0a}") (re.union (str.to.re "\u{0d}") (re.union (str.to.re "\u{09}") (str.to.re "\u{0c}")))))) (re.++ (re.union (re.++ (str.to.re "") (re.++ (str.to.re "D") (re.++ (str.to.re "I") (re.++ (str.to.re "S") (re.++ (str.to.re "T") (re.++ (str.to.re "I") (re.++ (str.to.re "N") (re.++ (str.to.re "C") (str.to.re "T"))))))))) (str.to.re "")) (re.+? (re.union (re.range "A" "Z") (re.union (re.range "a" "z") (re.union (re.range "0" "9") (re.union (str.to.re "_") (re.union (str.to.re "*") (re.union (str.to.re ")") (re.union (str.to.re "(") (re.union (str.to.re ",") (re.union (re.union (str.to.re "\u{20}") (re.union (str.to.re "\u{0b}") (re.union (str.to.re "\u{0a}") (re.union (str.to.re "\u{0d}") (re.union (str.to.re "\u{09}") (str.to.re "\u{0c}")))))) (re.union (str.to.re ".") (re.union (str.to.re "&") (re.union (str.to.re "#") (re.union (str.to.re "3") (re.union (str.to.re "9") (re.union (str.to.re ";") (re.union (str.to.re "+") (re.union (str.to.re "|") (re.union (str.to.re ":") (str.to.re "="))))))))))))))))))))))))))))) (re.++ (re.union (str.to.re " ") (re.union (str.to.re "\u{0b}") (re.union (str.to.re "\u{0a}") (re.union (str.to.re "\u{0d}") (re.union (str.to.re "\u{09}") (str.to.re "\u{0c}")))))) (re.++ (str.to.re "F") (re.++ (str.to.re "R") (re.++ (str.to.re "O") (re.++ (str.to.re "M") (re.++ (re.union (str.to.re " ") (re.union (str.to.re "\u{0b}") (re.union (str.to.re "\u{0a}") (re.union (str.to.re "\u{0d}") (re.union (str.to.re "\u{09}") (str.to.re "\u{0c}")))))) (re.+ (re.union (re.union (re.range "a" "z") (re.union (re.range "A" "Z") (re.union (re.range "0" "9") (str.to.re "_")))) (str.to.re ".")))))))))) re.all))) (str.to.re "\x00"))))
;match[1]!==null
(assert (str.in.re ((_ str.extract 1) var0 (re.++ (re.*? re.allchar) (re.++ (re.++ ((_ re.capture 1) (re.++ (str.to.re "S") (re.++ (str.to.re "E") (re.++ (str.to.re "L") (re.++ (str.to.re "E") (re.++ (str.to.re "C") (re.++ (str.to.re "T") (re.++ (re.union (str.to.re " ") (re.union (str.to.re "\u{0b}") (re.union (str.to.re "\u{0a}") (re.union (str.to.re "\u{0d}") (re.union (str.to.re "\u{09}") (str.to.re "\u{0c}")))))) (re.++ (re.union (re.++ (str.to.re "") (re.++ (str.to.re "D") (re.++ (str.to.re "I") (re.++ (str.to.re "S") (re.++ (str.to.re "T") (re.++ (str.to.re "I") (re.++ (str.to.re "N") (re.++ (str.to.re "C") (str.to.re "T"))))))))) (str.to.re "")) (re.+? (re.union (re.range "A" "Z") (re.union (re.range "a" "z") (re.union (re.range "0" "9") (re.union (str.to.re "_") (re.union (str.to.re "*") (re.union (str.to.re ")") (re.union (str.to.re "(") (re.union (str.to.re ",") (re.union (re.union (str.to.re "\u{20}") (re.union (str.to.re "\u{0b}") (re.union (str.to.re "\u{0a}") (re.union (str.to.re "\u{0d}") (re.union (str.to.re "\u{09}") (str.to.re "\u{0c}")))))) (re.union (str.to.re ".") (re.union (str.to.re "&") (re.union (str.to.re "#") (re.union (str.to.re "3") (re.union (str.to.re "9") (re.union (str.to.re ";") (re.union (str.to.re "+") (re.union (str.to.re "|") (re.union (str.to.re ":") (str.to.re "="))))))))))))))))))))))))))))) (re.++ (re.union (str.to.re " ") (re.union (str.to.re "\u{0b}") (re.union (str.to.re "\u{0a}") (re.union (str.to.re "\u{0d}") (re.union (str.to.re "\u{09}") (str.to.re "\u{0c}")))))) (re.++ (str.to.re "F") (re.++ (str.to.re "R") (re.++ (str.to.re "O") (re.++ (str.to.re "M") (re.++ (re.union (str.to.re " ") (re.union (str.to.re "\u{0b}") (re.union (str.to.re "\u{0a}") (re.union (str.to.re "\u{0d}") (re.union (str.to.re "\u{09}") (str.to.re "\u{0c}")))))) (re.+ (re.union (re.union (re.range "a" "z") (re.union (re.range "A" "Z") (re.union (re.range "0" "9") (str.to.re "_")))) (str.to.re ".")))))))))) re.all))) (re.++ re.all(re.+ (re.range "a" "z")) re.all) ))
;/[a-z]+/.test(match[1]) == true
(check-sat)
(get-model)
(pop 1)
(push 1)
(assert (str.in.re var0 (re.* (re.range "\x01" "\xff"))))
(assert (str.in.re var0 (re.++ (re.*? re.allchar) (re.++ (re.++ ((_ re.capture 1) (re.++ (str.to.re "S") (re.++ (str.to.re "E") (re.++ (str.to.re "L") (re.++ (str.to.re "E") (re.++ (str.to.re "C") (re.++ (str.to.re "T") (re.++ (re.union (str.to.re " ") (re.union (str.to.re "\u{0b}") (re.union (str.to.re "\u{0a}") (re.union (str.to.re "\u{0d}") (re.union (str.to.re "\u{09}") (str.to.re "\u{0c}")))))) (re.++ (re.union (re.++ (str.to.re "") (re.++ (str.to.re "D") (re.++ (str.to.re "I") (re.++ (str.to.re "S") (re.++ (str.to.re "T") (re.++ (str.to.re "I") (re.++ (str.to.re "N") (re.++ (str.to.re "C") (str.to.re "T"))))))))) (str.to.re "")) (re.+? (re.union (re.range "A" "Z") (re.union (re.range "a" "z") (re.union (re.range "0" "9") (re.union (str.to.re "_") (re.union (str.to.re "*") (re.union (str.to.re ")") (re.union (str.to.re "(") (re.union (str.to.re ",") (re.union (re.union (str.to.re "\u{20}") (re.union (str.to.re "\u{0b}") (re.union (str.to.re "\u{0a}") (re.union (str.to.re "\u{0d}") (re.union (str.to.re "\u{09}") (str.to.re "\u{0c}")))))) (re.union (str.to.re ".") (re.union (str.to.re "&") (re.union (str.to.re "#") (re.union (str.to.re "3") (re.union (str.to.re "9") (re.union (str.to.re ";") (re.union (str.to.re "+") (re.union (str.to.re "|") (re.union (str.to.re ":") (str.to.re "="))))))))))))))))))))))))))))) (re.++ (re.union (str.to.re " ") (re.union (str.to.re "\u{0b}") (re.union (str.to.re "\u{0a}") (re.union (str.to.re "\u{0d}") (re.union (str.to.re "\u{09}") (str.to.re "\u{0c}")))))) (re.++ (str.to.re "F") (re.++ (str.to.re "R") (re.++ (str.to.re "O") (re.++ (str.to.re "M") (re.++ (re.union (str.to.re " ") (re.union (str.to.re "\u{0b}") (re.union (str.to.re "\u{0a}") (re.union (str.to.re "\u{0d}") (re.union (str.to.re "\u{09}") (str.to.re "\u{0c}")))))) (re.+ (re.union (re.union (re.range "a" "z") (re.union (re.range "A" "Z") (re.union (re.range "0" "9") (str.to.re "_")))) (str.to.re ".")))))))))) re.all))))	; match!==null
(assert (not (str.in.re ((_ str.extract 1) var0 (re.++ (re.*? re.allchar) (re.++ (re.++ ((_ re.capture 1) (re.++ (str.to.re "S") (re.++ (str.to.re "E") (re.++ (str.to.re "L") (re.++ (str.to.re "E") (re.++ (str.to.re "C") (re.++ (str.to.re "T") (re.++ (re.union (str.to.re " ") (re.union (str.to.re "\u{0b}") (re.union (str.to.re "\u{0a}") (re.union (str.to.re "\u{0d}") (re.union (str.to.re "\u{09}") (str.to.re "\u{0c}")))))) (re.++ (re.union (re.++ (str.to.re "") (re.++ (str.to.re "D") (re.++ (str.to.re "I") (re.++ (str.to.re "S") (re.++ (str.to.re "T") (re.++ (str.to.re "I") (re.++ (str.to.re "N") (re.++ (str.to.re "C") (str.to.re "T"))))))))) (str.to.re "")) (re.+? (re.union (re.range "A" "Z") (re.union (re.range "a" "z") (re.union (re.range "0" "9") (re.union (str.to.re "_") (re.union (str.to.re "*") (re.union (str.to.re ")") (re.union (str.to.re "(") (re.union (str.to.re ",") (re.union (re.union (str.to.re "\u{20}") (re.union (str.to.re "\u{0b}") (re.union (str.to.re "\u{0a}") (re.union (str.to.re "\u{0d}") (re.union (str.to.re "\u{09}") (str.to.re "\u{0c}")))))) (re.union (str.to.re ".") (re.union (str.to.re "&") (re.union (str.to.re "#") (re.union (str.to.re "3") (re.union (str.to.re "9") (re.union (str.to.re ";") (re.union (str.to.re "+") (re.union (str.to.re "|") (re.union (str.to.re ":") (str.to.re "="))))))))))))))))))))))))))))) (re.++ (re.union (str.to.re " ") (re.union (str.to.re "\u{0b}") (re.union (str.to.re "\u{0a}") (re.union (str.to.re "\u{0d}") (re.union (str.to.re "\u{09}") (str.to.re "\u{0c}")))))) (re.++ (str.to.re "F") (re.++ (str.to.re "R") (re.++ (str.to.re "O") (re.++ (str.to.re "M") (re.++ (re.union (str.to.re " ") (re.union (str.to.re "\u{0b}") (re.union (str.to.re "\u{0a}") (re.union (str.to.re "\u{0d}") (re.union (str.to.re "\u{09}") (str.to.re "\u{0c}")))))) (re.+ (re.union (re.union (re.range "a" "z") (re.union (re.range "A" "Z") (re.union (re.range "0" "9") (str.to.re "_")))) (str.to.re ".")))))))))) re.all))) (str.to.re "\x00"))))	
;match[1]!==null
(assert (not (str.in.re ((_ str.extract 1) var0 (re.++ (re.*? re.allchar) (re.++ (re.++ ((_ re.capture 1) (re.++ (str.to.re "S") (re.++ (str.to.re "E") (re.++ (str.to.re "L") (re.++ (str.to.re "E") (re.++ (str.to.re "C") (re.++ (str.to.re "T") (re.++ (re.union (str.to.re " ") (re.union (str.to.re "\u{0b}") (re.union (str.to.re "\u{0a}") (re.union (str.to.re "\u{0d}") (re.union (str.to.re "\u{09}") (str.to.re "\u{0c}")))))) (re.++ (re.union (re.++ (str.to.re "") (re.++ (str.to.re "D") (re.++ (str.to.re "I") (re.++ (str.to.re "S") (re.++ (str.to.re "T") (re.++ (str.to.re "I") (re.++ (str.to.re "N") (re.++ (str.to.re "C") (str.to.re "T"))))))))) (str.to.re "")) (re.+? (re.union (re.range "A" "Z") (re.union (re.range "a" "z") (re.union (re.range "0" "9") (re.union (str.to.re "_") (re.union (str.to.re "*") (re.union (str.to.re ")") (re.union (str.to.re "(") (re.union (str.to.re ",") (re.union (re.union (str.to.re "\u{20}") (re.union (str.to.re "\u{0b}") (re.union (str.to.re "\u{0a}") (re.union (str.to.re "\u{0d}") (re.union (str.to.re "\u{09}") (str.to.re "\u{0c}")))))) (re.union (str.to.re ".") (re.union (str.to.re "&") (re.union (str.to.re "#") (re.union (str.to.re "3") (re.union (str.to.re "9") (re.union (str.to.re ";") (re.union (str.to.re "+") (re.union (str.to.re "|") (re.union (str.to.re ":") (str.to.re "="))))))))))))))))))))))))))))) (re.++ (re.union (str.to.re " ") (re.union (str.to.re "\u{0b}") (re.union (str.to.re "\u{0a}") (re.union (str.to.re "\u{0d}") (re.union (str.to.re "\u{09}") (str.to.re "\u{0c}")))))) (re.++ (str.to.re "F") (re.++ (str.to.re "R") (re.++ (str.to.re "O") (re.++ (str.to.re "M") (re.++ (re.union (str.to.re " ") (re.union (str.to.re "\u{0b}") (re.union (str.to.re "\u{0a}") (re.union (str.to.re "\u{0d}") (re.union (str.to.re "\u{09}") (str.to.re "\u{0c}")))))) (re.+ (re.union (re.union (re.range "a" "z") (re.union (re.range "A" "Z") (re.union (re.range "0" "9") (str.to.re "_")))) (str.to.re ".")))))))))) re.all))) (re.++ re.all(re.+ (re.range "a" "z")) re.all) )))
;/[a-z]+/.test(match[1]) == false	
(check-sat)
(get-model)
(pop 1)
(push 1)
(assert (str.in.re var0 (re.* (re.range "\x01" "\xff"))))
(assert (str.in.re var0 (re.++ (re.*? re.allchar) (re.++ (re.++ ((_ re.capture 1) (re.++ (str.to.re "S") (re.++ (str.to.re "E") (re.++ (str.to.re "L") (re.++ (str.to.re "E") (re.++ (str.to.re "C") (re.++ (str.to.re "T") (re.++ (re.union (str.to.re " ") (re.union (str.to.re "\u{0b}") (re.union (str.to.re "\u{0a}") (re.union (str.to.re "\u{0d}") (re.union (str.to.re "\u{09}") (str.to.re "\u{0c}")))))) (re.++ (re.union (re.++ (str.to.re "") (re.++ (str.to.re "D") (re.++ (str.to.re "I") (re.++ (str.to.re "S") (re.++ (str.to.re "T") (re.++ (str.to.re "I") (re.++ (str.to.re "N") (re.++ (str.to.re "C") (str.to.re "T"))))))))) (str.to.re "")) (re.+? (re.union (re.range "A" "Z") (re.union (re.range "a" "z") (re.union (re.range "0" "9") (re.union (str.to.re "_") (re.union (str.to.re "*") (re.union (str.to.re ")") (re.union (str.to.re "(") (re.union (str.to.re ",") (re.union (re.union (str.to.re "\u{20}") (re.union (str.to.re "\u{0b}") (re.union (str.to.re "\u{0a}") (re.union (str.to.re "\u{0d}") (re.union (str.to.re "\u{09}") (str.to.re "\u{0c}")))))) (re.union (str.to.re ".") (re.union (str.to.re "&") (re.union (str.to.re "#") (re.union (str.to.re "3") (re.union (str.to.re "9") (re.union (str.to.re ";") (re.union (str.to.re "+") (re.union (str.to.re "|") (re.union (str.to.re ":") (str.to.re "="))))))))))))))))))))))))))))) (re.++ (re.union (str.to.re " ") (re.union (str.to.re "\u{0b}") (re.union (str.to.re "\u{0a}") (re.union (str.to.re "\u{0d}") (re.union (str.to.re "\u{09}") (str.to.re "\u{0c}")))))) (re.++ (str.to.re "F") (re.++ (str.to.re "R") (re.++ (str.to.re "O") (re.++ (str.to.re "M") (re.++ (re.union (str.to.re " ") (re.union (str.to.re "\u{0b}") (re.union (str.to.re "\u{0a}") (re.union (str.to.re "\u{0d}") (re.union (str.to.re "\u{09}") (str.to.re "\u{0c}")))))) (re.+ (re.union (re.union (re.range "a" "z") (re.union (re.range "A" "Z") (re.union (re.range "0" "9") (str.to.re "_")))) (str.to.re ".")))))))))) re.all))))	; match!==null
(assert (str.in.re ((_ str.extract 1) var0 (re.++ (re.*? re.allchar) (re.++ (re.++ ((_ re.capture 1) (re.++ (str.to.re "S") (re.++ (str.to.re "E") (re.++ (str.to.re "L") (re.++ (str.to.re "E") (re.++ (str.to.re "C") (re.++ (str.to.re "T") (re.++ (re.union (str.to.re " ") (re.union (str.to.re "\u{0b}") (re.union (str.to.re "\u{0a}") (re.union (str.to.re "\u{0d}") (re.union (str.to.re "\u{09}") (str.to.re "\u{0c}")))))) (re.++ (re.union (re.++ (str.to.re "") (re.++ (str.to.re "D") (re.++ (str.to.re "I") (re.++ (str.to.re "S") (re.++ (str.to.re "T") (re.++ (str.to.re "I") (re.++ (str.to.re "N") (re.++ (str.to.re "C") (str.to.re "T"))))))))) (str.to.re "")) (re.+? (re.union (re.range "A" "Z") (re.union (re.range "a" "z") (re.union (re.range "0" "9") (re.union (str.to.re "_") (re.union (str.to.re "*") (re.union (str.to.re ")") (re.union (str.to.re "(") (re.union (str.to.re ",") (re.union (re.union (str.to.re "\u{20}") (re.union (str.to.re "\u{0b}") (re.union (str.to.re "\u{0a}") (re.union (str.to.re "\u{0d}") (re.union (str.to.re "\u{09}") (str.to.re "\u{0c}")))))) (re.union (str.to.re ".") (re.union (str.to.re "&") (re.union (str.to.re "#") (re.union (str.to.re "3") (re.union (str.to.re "9") (re.union (str.to.re ";") (re.union (str.to.re "+") (re.union (str.to.re "|") (re.union (str.to.re ":") (str.to.re "="))))))))))))))))))))))))))))) (re.++ (re.union (str.to.re " ") (re.union (str.to.re "\u{0b}") (re.union (str.to.re "\u{0a}") (re.union (str.to.re "\u{0d}") (re.union (str.to.re "\u{09}") (str.to.re "\u{0c}")))))) (re.++ (str.to.re "F") (re.++ (str.to.re "R") (re.++ (str.to.re "O") (re.++ (str.to.re "M") (re.++ (re.union (str.to.re " ") (re.union (str.to.re "\u{0b}") (re.union (str.to.re "\u{0a}") (re.union (str.to.re "\u{0d}") (re.union (str.to.re "\u{09}") (str.to.re "\u{0c}")))))) (re.+ (re.union (re.union (re.range "a" "z") (re.union (re.range "A" "Z") (re.union (re.range "0" "9") (str.to.re "_")))) (str.to.re ".")))))))))) re.all))) (str.to.re "\x00")))
;match[1]==null
(check-sat)
(get-model)
(pop 1)
(push 1)
(assert (str.in.re var0 (re.* (re.range "\x01" "\xff"))))
(assert (not (str.in.re var0 (re.++ (re.*? re.allchar) (re.++ (re.++ ((_ re.capture 1) (re.++ (str.to.re "S") (re.++ (str.to.re "E") (re.++ (str.to.re "L") (re.++ (str.to.re "E") (re.++ (str.to.re "C") (re.++ (str.to.re "T") (re.++ (re.union (str.to.re " ") (re.union (str.to.re "\u{0b}") (re.union (str.to.re "\u{0a}") (re.union (str.to.re "\u{0d}") (re.union (str.to.re "\u{09}") (str.to.re "\u{0c}")))))) (re.++ (re.union (re.++ (str.to.re "") (re.++ (str.to.re "D") (re.++ (str.to.re "I") (re.++ (str.to.re "S") (re.++ (str.to.re "T") (re.++ (str.to.re "I") (re.++ (str.to.re "N") (re.++ (str.to.re "C") (str.to.re "T"))))))))) (str.to.re "")) (re.+? (re.union (re.range "A" "Z") (re.union (re.range "a" "z") (re.union (re.range "0" "9") (re.union (str.to.re "_") (re.union (str.to.re "*") (re.union (str.to.re ")") (re.union (str.to.re "(") (re.union (str.to.re ",") (re.union (re.union (str.to.re "\u{20}") (re.union (str.to.re "\u{0b}") (re.union (str.to.re "\u{0a}") (re.union (str.to.re "\u{0d}") (re.union (str.to.re "\u{09}") (str.to.re "\u{0c}")))))) (re.union (str.to.re ".") (re.union (str.to.re "&") (re.union (str.to.re "#") (re.union (str.to.re "3") (re.union (str.to.re "9") (re.union (str.to.re ";") (re.union (str.to.re "+") (re.union (str.to.re "|") (re.union (str.to.re ":") (str.to.re "="))))))))))))))))))))))))))))) (re.++ (re.union (str.to.re " ") (re.union (str.to.re "\u{0b}") (re.union (str.to.re "\u{0a}") (re.union (str.to.re "\u{0d}") (re.union (str.to.re "\u{09}") (str.to.re "\u{0c}")))))) (re.++ (str.to.re "F") (re.++ (str.to.re "R") (re.++ (str.to.re "O") (re.++ (str.to.re "M") (re.++ (re.union (str.to.re " ") (re.union (str.to.re "\u{0b}") (re.union (str.to.re "\u{0a}") (re.union (str.to.re "\u{0d}") (re.union (str.to.re "\u{09}") (str.to.re "\u{0c}")))))) (re.+ (re.union (re.union (re.range "a" "z") (re.union (re.range "A" "Z") (re.union (re.range "0" "9") (str.to.re "_")))) (str.to.re ".")))))))))) re.all)))))	; match == null
(check-sat)
(get-model)
(pop 1)
(exit)
